
  22   10
  10   10   10   10   10   10   10   10   10   10

   0   0   0   0   0   0   0   0   0   0   0   5 2 6 9 10 13 
  10   0   0   0   0   0   0   0   0   0  10   3 21 20 3 
   4   0   0   0   0   0   0  10   0   0   0   2 5 4 
  10   0   0   0   0  10   0   0   0   0   0   3 15 8 7 
   7   0   0   0   0  10   0   0   0   0   0   4 19 15 12 11 
   2   0   0   0   0   0   0  10   0   0   0   3 21 20 8 
   2   0   0   0   0   0   0  10   0   0   0   2 19 11 
   7   0   0   0   0   0  10   0   0   0   0   2 14 12 
   7   0   0   0  10   0   0   0   0   0   0   1 11 
   6  10   0   0   0   0   0   0   0   0   0   1 11 
   5   0  10   0   0   0   0   0   0   0   0   3 18 17 16 
   4   0   0   0   0   0   0   0  10   0   0   2 17 16 
   2   0   0   0   0   0   0   0  10   0   0   2 17 16 
   3   0   0   0   0   0   0   0   0   0  10   1 16 
   5  10   0   0   0   0   0   0   0   0   0   1 16 
   9   0   0   0   0   0   0   0   0  10   0   1 22
  10   0   0   0   0   0   0   0   0  10   0   1 22
  10   0   0   0   0   0   0   0   0   0  10   1 22
  10   0   0   0   0   0   0   0  10   0   0   1 22
   6   0   0   0   0   0  10   0   0   0   0   1 22
   4   0  10   0   0   0   0   0   0   0   0   1 22
   0   0   0   0   0   0   0   0   0   0   0   0 
